<instance format="XCSP3" type="CSP">
  <variables>
    <var id="x0"> 4 7 13 </var>
    <var id="x1"> 4 5 14 </var>
    <var id="x2"> 4 5 12 </var>
    <var id="x3"> 4 5 7 14 </var>
    <var id="x4"> 4 5 12 13 </var>
    <var id="x5"> 4 7 12 13 </var>
    <var id="x6"> 7 9 12 14 </var>
    <var id="x7"> 5 7..9 11 </var>
    <var id="x8"> 5 7 8 </var>
    <var id="x9"> 0 4 5 </var>
    <var id="x10"> 4 5 7 11 </var>
    <var id="x11"> 5 7 9 11 </var>
    <var id="x12"> 4 5 8 11 </var>
    <var id="x13"> 8 9 </var>
    <var id="x14"> 1 5 6 </var>
    <var id="x15"> 2 4 6 13 </var>
    <var id="x16"> 1 2 4..6 </var>
    <var id="x17"> 1 4..6 12 </var>
    <var id="x18"> 2 4 5 12 13 </var>
    <var id="x19"> 2 6 12 13 </var>
    <var id="x20"> 12 </var>
    <var id="x21"> 2 5 7 8 10 14 </var>
    <var id="x22"> 1 5 7 14 </var>
    <var id="x23"> 2 7 8 10 </var>
    <var id="x24"> 1 5 7 14 </var>
    <var id="x25"> 1 2 8 14 </var>
    <var id="x26"> 7 10 14 </var>
    <var id="x27"> 7 10 14 </var>
    <var id="x28"> 2 5 7 8 10 </var>
    <var id="x29"> 1 5 7 </var>
    <var id="x30"> 1 2 4 5 </var>
    <var id="x31"> 4 5 7 10 </var>
    <var id="x32"> 1 4 5 8 10 </var>
    <var id="x33"> 1 4 7 8 </var>
    <var id="x34"> 7 10 </var>
    <var id="x35"> 1 2 14 </var>
    <var id="x36"> 1 3 12 </var>
    <var id="x37"> 1 11 12 14 </var>
    <var id="x38"> 1 8 11 </var>
    <var id="x39"> 1..3 8 12 14 </var>
    <var id="x40"> 11 14 </var>
    <var id="x41"> 1 8 11 12 </var>
    <var id="x42"> 5 8 9 </var>
    <var id="x43"> 5 8 14 </var>
    <var id="x44"> 4 6 8 </var>
    <var id="x45"> 1 5 9 14 </var>
    <var id="x46"> 6 8 9 14 </var>
    <var id="x47"> 1 8 9 14 </var>
    <var id="x48"> 4 6 14 </var>
    <var id="x49"> 7 9 12 </var>
    <var id="x50"> 7 10 13 14 </var>
    <var id="x51"> 4 6 14 </var>
    <var id="x52"> 4 6 10 12 </var>
    <var id="x53"> 4 6 7 10 14 </var>
    <var id="x54"> 7 9 12 14 </var>
    <var id="x55"> 6 9 12..14 </var>
    <var id="x56"> 4 7 12 13 </var>
    <var id="x57"> 1 3 14 </var>
    <var id="x58"> 2 10 </var>
    <var id="x59"> 1 2 14 </var>
    <var id="x60"> 10 11 14 </var>
    <var id="x61"> 2 3 12 </var>
    <var as="x37" id="x62"/>
    <var id="x63"> 2 12 14 </var>
    <var id="x64"> 5 7 8 12 </var>
    <var id="x65"> 5 7 8 10 14 </var>
    <var id="x66"> 5 7 14 </var>
    <var id="x67"> 4 7 8 10 </var>
    <var id="x68"> 5 7 12 14 </var>
    <var id="x69"> 4 5 8 10 </var>
    <var id="x70"> 4 7 10 14 </var>
    <var id="x71"> 2 11 12 </var>
    <var id="x72"> 6 12 </var>
    <var id="x73"> 0 2 12 13 </var>
    <var id="x74"> 2 6 12..14 </var>
    <var id="x75"> 2 12 14 </var>
    <var id="x76"> 6 11 13 14 </var>
    <var id="x77"> 0 11..13 </var>
    <var id="x78"> 1 5 14 </var>
    <var id="x79"> 5 12 13 </var>
    <var id="x80"> 12..14 </var>
    <var id="x81"> 1 5 10 11 13 </var>
    <var id="x82"> 1 12 14 </var>
    <var id="x83"> 10 11 13 14 </var>
    <var id="x84"> 1 11..13 </var>
    <var id="x85"> 5 7 13 </var>
    <var id="x86"> 3 5 6 </var>
    <var id="x87"> 5..7 11 </var>
    <var id="x88"> 0 3 5 13 </var>
    <var id="x89"> 5 11 13 </var>
    <var id="x90"> 0 7 11 13 </var>
    <var id="x91"> 0 7 11 </var>
    <var id="x92"> 7..9 </var>
    <var id="x93"> 3 6 10 </var>
    <var id="x94"> 3 13 </var>
    <var id="x95"> 8 10 13 </var>
    <var id="x96"> 3 8 9 </var>
    <var id="x97"> 6 7 10 13 </var>
    <var id="x98"> 7 9 10 </var>
    <var id="x99"> 2 7 9 11 </var>
    <var id="x100"> 6 7 9 </var>
    <var id="x101"> 2 4 6 7 </var>
    <var id="x102"> 4 6 7 11 </var>
    <var id="x103"> 2 6 9 </var>
    <var id="x104"> 0 4 7 11 </var>
    <var id="x105"> 0 7 9 11 </var>
  </variables>
  <constraints>
    <group>
      <allDifferent> %... </allDifferent>
      <args> x0 x1 x2 x3 x4 x5 x6 </args>
      <args> x7 x8 x9 x10 x11 x12 x13 </args>
      <args> x14 x15 x16 x17 x18 x19 x20 </args>
      <args> x21 x22 x23 x24 x25 x26 x27 </args>
      <args> x28 x29 x30 x31 x32 x33 x34 </args>
      <args> x35 x36 x37 x38 x39 x40 x41 </args>
      <args> x42 x43 x44 x45 x46 x47 x48 </args>
      <args> x49 x50 x51 x52 x53 x54 x55 x56 </args>
      <args> x57 x58 x59 x60 x61 x62 x63 </args>
      <args> x64 x65 x66 x67 x68 x69 x70 </args>
      <args> x71 x72 x73 x74 x75 x76 x77 </args>
      <args> x78 x79 x80 x81 x82 x83 x84 </args>
      <args> x85 x86 x87 x88 x89 x90 x91 </args>
      <args> x92 x93 x94 x95 x96 x97 x98 </args>
      <args> x99 x100 x101 x102 x103 x104 x105 </args>
      <args> x7 x42 x49 x64 x71 x92 x99 </args>
      <args> x8 x21 x28 x43 x50 x65 x85 </args>
      <args> x14 x22 x29 x57 x66 x78 x100 </args>
      <args> x0 x15 x23 x44 x58 x67 x101 </args>
      <args> x1 x9 x16 x30 x35 x51 x59 </args>
      <args> x2 x17 x36 x52 x72 x86 x93 </args>
      <args> x3 x10 x31 x53 x60 x87 x102 </args>
      <args> x4 x18 x61 x73 x79 x88 x94 </args>
      <args> x11 x24 x37 x45 x54 x62 x68 </args>
      <args> x19 x46 x55 x63 x74 x80 x103 </args>
      <args> x12 x32 x38 x69 x81 x89 x95 </args>
      <args> x13 x25 x39 x47 x75 x82 x96 </args>
      <args> x26 x40 x48 x70 x76 x83 x97 </args>
      <args> x5 x33 x41 x56 x77 x84 x90 x104 </args>
      <args> x6 x20 x27 x34 x91 x98 x105 </args>
    </group>
  </constraints>
</instance>

